src/swarm_exploration/utils/lkh_mtsp_solver/resource/amtsp2_2.atsp
NAME : amtsp
TYPE : ATSP
DIMENSION : 4
EDGE_WEIGHT_TYPE : EXPLICIT
EDGE_WEIGHT_FORMAT : FULL_MATRIX
EDGE_WEIGHT_SECTION
100000 -100000 100000 100000 
100000 100000 4177 4218 
0 0 100000 350 
0 0 350 100000 
