src/swarm_exploration/utils/lkh_mtsp_solver/resource/amtsp2_2.tour
NAME : amtsp.-95473.tour
COMMENT : Length = -95473
COMMENT : Found by LKH [Keld Helsgaun] Thu Jul 24 17:41:28 2025
TYPE : TOUR
DIMENSION : 4
TOUR_SECTION
1
2
3
4
-1
EOF
